data;

set PROD francaise europienne reportage;


param:    domet		martel	 demande :=
francaise   1  		1    		20
europienne	2		1			30
reportage	2		5			60;


param  prix1 :=20; 
param  prix2 :=24; 